(set-logic QF_S)
(declare-fun _var_0xINPUT_388457_() String)
(declare-fun __woorpje_diseq_pref0_() String)
(declare-fun __woorpje_diseq_suf_l0_() String)
(declare-fun __woorpje_diseq_suf_r0_() String)
(declare-fun __woorpje_diseq_pref1_() String)
(declare-fun __woorpje_diseq_suf_l1_() String)
(declare-fun __woorpje_diseq_suf_r1_() String)
(declare-fun __woorpje_diseq_pref2_() String)
(declare-fun __woorpje_diseq_suf_l2_() String)
(declare-fun __woorpje_diseq_suf_r2_() String)
(assert (=(str.++ _var_0xINPUT_388457_  "")(str.++ __woorpje_diseq_pref1_  "l" __woorpje_diseq_suf_l1_  "")) )
(assert (=(str.++  "Example:" "")(str.++ __woorpje_diseq_pref1_  "E" __woorpje_diseq_suf_r1_  "")) )
(assert  (<= (* (str.len _var_0xINPUT_388457_)(- 1)) (- 1)) )
(assert  (<= (* (str.len _var_0xINPUT_388457_)(- 1)) (- 1)) )
(assert  (<= (* (str.len _var_0xINPUT_388457_)1) 9) )
(check-sat)
